TCS_Benchmarks/redos_fix/corpus2_output_distinct_3789_3788_0_0.txt
.*
(.*)(PS 3.6-2007)(.*)
.*